inada/spaceship/2.tsp
NAME
TYPE: TSP
COMMENT: spaceship 2.txt
DIMENSION: 50
EDGE_WEIGHT_TYPE: MAX_2D
NODE_COORD_SECTION
0 0 0
1 0 1
2 0 1
3 -1 2
4 -1 4
5 0 7
6 1 10
7 3 12
8 5 13
9 7 14
10 8 14
11 8 13
12 9 13
13 10 14
14 11 15
15 12 15
16 14 16
17 17 16
18 20 15
19 22 15
20 23 14
21 25 12
22 27 10
23 29 8
24 32 6
25 35 4
26 37 2
27 40 -1
28 44 -4
29 49 -8
30 53 -11
31 58 -14
32 63 -18
33 68 -22
34 72 -26
35 77 -29
36 81 -33
37 85 -37
38 88 -42
39 90 -48
40 92 -55
41 94 -61
42 95 -68
43 95 -76
44 94 -84
45 93 -93
46 92 -102
47 92 -112
48 92 -122
49 93 -131
50 94 -140
EOF
