shiota/starship2/2.out
solve spaceship2 8499611131999964111742927666274543699691119135565436177788872332319924645591555551555297773531255459852195255779999112234564
